c t mc
c file track1_086.cnf
p cnf 3276 1761
-728 27 -2 0
-2 3 0
2 -3 0
-681 4 -3 0
681 -4 -3 0
-682 4 3 0
682 -4 3 0
-683 -4 5 0
683 -4 -5 0
-684 4 5 0
684 4 -5 0
-685 6 -5 0
685 -6 -5 0
-686 6 5 0
686 -6 5 0
-687 -6 7 0
687 -6 -7 0
-688 6 7 0
688 6 -7 0
60 -59 7 0
-12 -35 0
-702 14 12 0
701 -14 -12 0
-701 14 -12 0
702 -14 12 0
-14 -15 0
14 15 0
706 -18 15 709 0
-706 -18 15 710 0
705 709 -15 -18 0
-706 -710 15 18 0
-705 -18 -15 710 0
710 709 -18 0
705 18 -15 -709 0
706 18 15 -709 0
-705 18 -15 -710 0
-710 -709 18 0
-18 -711 19 0
-18 711 -19 0
18 -712 19 0
18 712 -19 0
727 -27 2 0
-727 27 2 0
728 -27 -2 0
-729 -27 28 -2 0
729 -27 -28 -2 0
-730 -27 28 2 0
730 -27 -28 2 0
-731 27 -2 28 0
731 27 -2 -28 0
-732 27 28 2 0
732 27 -28 2 0
-3 -28 29 0
3 -29 0
-29 28 0
-4 -29 30 -737 0
-4 -29 -30 737 0
4 -29 30 -738 0
738 -29 -30 4 0
-4 -739 30 29 0
-4 739 29 -30 0
4 -740 30 29 0
4 740 29 -30 0
-5 -30 31 0
5 -31 0
-31 30 0
-6 -31 32 -745 0
-6 -31 -32 745 0
6 -31 32 -746 0
746 -31 -32 6 0
-6 -747 32 31 0
-6 747 31 -32 0
6 -748 32 31 0
6 748 31 -32 0
33 -7 0
-33 -32 7 0
32 33 0
-7 -35 0
35 -59 -60 0
12 35 0
776 772 -39 12 0
-775 771 39 -12 0
-772 12 -39 774 0
-772 -774 39 12 0
-771 773 -39 -12 0
-771 -12 39 -773 0
-776 12 39 772 0
771 -12 -39 775 0
-777 -14 -39 40 0
777 -14 -39 -40 0
-778 14 40 -39 0
778 14 -39 -40 0
-779 -14 39 40 0
779 -14 39 -40 0
-780 14 40 39 0
780 14 39 -40 0
-15 -68 66 40 0
15 -68 66 -40 0
-68 -122 0
-714 124 -68 0
-27 -829 53 0
-27 829 -53 0
27 -830 53 0
27 830 -53 0
-54 -53 0
-28 53 54 0
28 -54 0
-29 55 0
-54 29 -55 0
55 54 0
-30 57 -55 0
31 55 -57 -30 0
-31 57 0
30 -57 -55 0
30 55 57 0
-847 -32 -57 58 0
847 -32 -57 -58 0
32 -848 -57 58 0
848 32 -57 -58 0
-849 -32 57 58 0
849 -32 57 -58 0
32 -850 58 57 0
32 850 -58 57 0
-851 -58 -33 59 0
-33 -58 -59 851 0
33 -852 59 -58 0
852 -58 -59 33 0
-853 58 -33 59 0
58 -33 -59 853 0
33 -854 59 58 0
33 58 -59 854 0
7 -60 59 0
35 60 59 0
7 35 0
-60 -35 61 0
35 -61 0
60 -61 0
-39 65 0
39 -65 0
-65 -879 66 -40 0
-40 879 -66 -65 0
-65 -880 40 66 0
880 40 -66 -65 0
-881 65 66 -40 0
-40 881 65 -66 0
-882 40 65 66 0
40 882 65 -66 0
-15 -40 68 0
-66 68 0
15 40 68 0
68 122 0
713 -19 178 0
-53 79 0
53 -79 0
-934 80 -79 0
934 -80 -79 0
-935 -54 80 0
935 -54 -80 0
54 -936 80 79 0
936 79 54 -80 0
-1046 106 108 82 0
1044 -106 -108 82 0
-82 80 -55 0
-57 83 0
57 -83 0
-58 949 -85 -83 59 0
58 -952 85 83 0
58 -85 59 83 952 0
-58 -951 85 83 0
-58 -85 59 83 951 0
58 85 -83 -950 0
-59 85 0
-58 85 -83 -949 0
-85 59 -83 58 950 0
-957 -85 86 -60 0
957 -60 -86 -85 0
60 -85 86 -958 0
958 -85 -86 60 0
-959 85 86 -60 0
-60 85 -86 959 0
60 85 86 -960 0
60 85 -86 960 0
-61 -86 87 -961 0
-61 -86 -87 961 0
61 -86 87 -962 0
962 -86 -87 61 0
-61 86 87 -963 0
-61 86 -87 963 0
61 86 87 -964 0
61 86 -87 964 0
-87 -88 0
88 87 0
-969 89 -88 0
969 -89 -88 0
-971 88 89 0
971 88 -89 0
-973 -89 90 0
973 -89 -90 0
-975 89 90 0
975 89 -90 0
-66 118 90 0
94 -68 0
-94 68 0
94 -173 -172 0
-123 19 -124 68 0
124 -19 0
-79 -105 0
79 105 0
-80 106 -105 0
-106 80 -105 0
-80 -106 105 0
80 106 105 0
82 -80 0
55 82 0
82 106 -108 1046 0
-1044 -106 108 80 0
-1045 -82 108 0
1045 -82 -108 0
110 108 0
83 -108 -110 0
-83 110 0
-85 -1055 111 -110 0
-85 -111 -110 1055 0
85 -1056 111 -110 0
1056 -111 -110 85 0
-85 -1057 110 111 0
-85 -111 110 1057 0
85 -1058 110 111 0
85 -111 110 1058 0
-86 -1059 -111 112 0
-86 -111 -112 1059 0
86 -1060 -111 112 0
1060 -111 -112 86 0
-86 -1061 112 111 0
-86 111 -112 1061 0
86 -1062 112 111 0
86 111 -112 1062 0
-87 113 0
87 -112 -113 0
113 112 0
-88 -1067 -113 114 0
-88 1067 -114 -113 0
88 -1068 114 0
88 1068 -114 0
-1069 113 114 0
1069 113 -114 0
-89 -114 115 -1071 0
-89 -114 -115 1071 0
89 -114 115 -1072 0
1072 -114 -115 89 0
-89 114 115 -1073 0
-89 114 -115 1073 0
89 114 115 -1074 0
89 114 -115 1074 0
90 143 0
65 -66 118 0
-65 -118 -90 0
-118 66 0
-1087 -118 119 0
1087 -118 -119 0
-1089 119 118 0
1089 -119 118 0
-1091 -119 120 -94 0
1091 -119 -120 -94 0
-1092 -119 94 120 0
1092 -119 94 -120 0
-1093 119 120 -94 0
119 1093 -120 -94 0
119 -1094 94 120 0
119 -120 94 1094 0
120 146 173 -172 -94 0
146 120 -173 172 -94 0
-1103 123 -122 0
1103 -123 -122 0
-1105 123 122 0
1105 -123 122 0
-124 -123 19 714 0
123 124 0
-713 -178 0
-105 -131 0
105 131 0
-106 -1137 132 -131 0
-106 1137 -131 -132 0
106 -1138 132 -131 0
1138 106 -131 -132 0
-106 -1139 132 131 0
-106 1139 -132 131 0
106 -1140 132 131 0
106 1140 -132 131 0
-132 -133 0
132 133 0
-135 110 0
-135 -108 133 0
-83 -133 135 -108 0
-135 -133 108 0
-135 111 -138 1153 0
111 -138 -110 135 1155 0
-1156 110 138 112 0
138 112 -110 135 -1155 0
-135 -1153 112 138 0
-111 138 112 0
-112 -138 0
110 111 -138 1156 0
-114 -113 140 0
113 114 140 0
-114 113 -140 0
114 -113 -140 0
1173 -115 167 -140 166 0
140 115 -167 -1176 0
140 115 166 167 1176 0
140 -115 -167 -1175 0
-115 167 166 140 1175 0
-140 115 -167 -1174 0
-90 -143 0
-119 -145 -143 118 0
143 145 118 0
-118 145 -143 0
-118 143 -119 -145 0
119 145 0
-145 -1193 -120 146 0
-145 -146 -120 1193 0
-145 -1194 146 120 0
1194 -145 -146 120 0
145 -1195 -120 146 0
145 -146 -120 1195 0
145 -1196 146 120 0
1196 145 120 -146 0
-146 173 172 0
-122 -148 0
122 148 0
-1205 -123 -148 149 0
1205 -123 -148 -149 0
123 149 -148 -1206 0
1206 -149 -148 123 0
-1207 -123 148 149 0
1207 -123 148 -149 0
123 149 148 -1208 0
123 -149 148 1208 0
-149 150 -124 -1209 0
-149 1209 -150 -124 0
-149 124 150 -1210 0
-149 1210 -150 124 0
149 150 -124 -1211 0
149 1211 -150 -124 0
149 124 150 -1212 0
124 149 -150 1212 0
-131 -157 0
131 157 0
-1239 158 -132 -157 0
1239 -132 -157 -158 0
-1240 132 -157 158 0
1240 132 -157 -158 0
-1241 158 -132 157 0
1241 -132 157 -158 0
-1242 132 157 158 0
132 1242 157 -158 0
-158 184 -211 0
-133 184 -211 0
158 133 -210 211 0
138 1266 -165 0
1265 -138 -165 0
138 -1266 165 0
-138 -1265 165 0
-1271 -140 -165 166 0
-140 1271 -166 -165 0
140 -1272 166 -165 0
1272 140 -166 -165 0
-1273 -140 165 166 0
-140 165 -166 1273 0
140 165 166 -1274 0
140 165 -166 1274 0
-115 -140 -167 -1173 0
-166 -167 0
115 -140 167 166 1174 0
143 170 0
-143 -170 -167 0
-145 -170 171 -1291 0
-145 -170 -171 1291 0
145 -170 171 -1292 0
1292 -170 -171 145 0
-145 171 170 -1293 0
-145 170 -171 1293 0
145 171 170 -1294 0
145 170 -171 1294 0
-146 -1295 172 -171 0
1295 -146 -171 -172 0
-1296 146 172 -171 0
1296 146 -172 -171 0
-146 171 172 -1297 0
1297 -146 171 -172 0
-1298 171 172 146 0
1298 171 -172 146 0
-120 -173 -172 0
-146 -173 -172 0
-120 173 172 0
94 173 172 0
-148 -173 174 0
148 -173 -174 0
-148 173 -174 0
148 173 174 0
150 -203 0
19 -178 0
-157 183 0
157 -183 0
-158 -1341 184 -183 0
-158 1341 -184 -183 0
158 -1342 184 -183 0
1342 158 -184 -183 0
-158 -1343 184 183 0
-158 1343 183 -184 0
158 -1344 184 183 0
158 1344 183 -184 0
-184 211 -210 0
-1464 -190 215 0
-165 -190 191 0
165 -191 0
190 -191 0
-166 -191 192 -1373 0
-166 -191 -192 1373 0
-1374 -191 166 192 0
1374 -191 -192 166 0
-166 191 192 -1375 0
-166 191 -192 1375 0
-1376 191 166 192 0
1376 191 166 -192 0
-193 -192 0
-167 193 192 0
167 -193 0
170 194 -195 0
-193 194 0
-194 193 0
-194 195 0
167 170 0
-1389 -170 196 0
1389 -170 -196 0
170 -1390 196 -195 0
170 1390 -196 -195 0
-170 195 0
-1392 195 196 0
1392 195 -196 0
-196 197 0
-171 196 -197 0
171 197 0
-172 -198 -197 0
172 198 -197 0
-172 197 198 0
172 -198 197 0
-173 -198 199 -1401 0
-173 -198 -199 1401 0
173 -198 199 -1402 0
1402 -198 -199 173 0
-173 198 199 -1403 0
-173 198 -199 1403 0
173 198 199 -1404 0
173 198 -199 1404 0
1406 174 226 0
-174 203 199 -150 1407 0
1405 -174 226 0
1405 -174 -150 -199 203 0
-1407 -203 199 0
174 -226 -225 -1406 0
174 -203 0
-1405 -174 -226 -225 0
1421 -178 230 -203 0
178 229 -230 203 -1424 0
203 178 230 1424 0
203 -178 229 -230 -1423 0
203 -178 230 1423 0
178 -203 -230 229 -1422 0
-183 209 0
183 -209 0
-184 -1443 -209 210 0
-184 1443 -210 -209 0
184 -1444 -209 210 0
1444 184 -209 -210 0
-184 -1445 209 210 0
-184 1445 -210 209 0
-1446 184 209 210 0
1446 184 -210 209 0
108 135 133 0
210 -211 0
1464 -190 -215 0
1463 190 -215 0
-1463 190 215 0
-216 -190 0
190 -215 216 0
-216 215 0
-216 -1472 217 0
-216 1472 -217 0
-191 -1473 217 0
-191 1473 -217 0
191 216 217 -1474 0
191 216 -217 1474 0
-192 218 -217 0
-218 192 -217 0
-192 -218 217 0
192 218 217 0
-193 -218 219 0
193 -218 -219 0
-193 218 -219 0
193 218 219 0
-194 -219 220 -1483 0
-194 -219 -220 1483 0
-1484 194 220 -219 0
1484 -219 -220 194 0
-194 219 220 -1485 0
-194 219 -220 1485 0
-1486 194 220 219 0
1486 219 -220 194 0
-195 -220 221 0
195 -221 0
220 -221 0
-196 -221 222 -1491 0
-196 -221 -222 1491 0
-1492 196 -221 222 0
1492 -221 -222 196 0
-196 221 222 -1493 0
-196 221 -222 1493 0
-1494 196 221 222 0
1494 221 -222 196 0
-197 -223 0
-223 -222 0
197 222 223 0
1499 -198 250 -223 0
198 -1502 -250 223 0
198 -249 223 250 1502 0
-198 -1501 -250 223 0
-198 -249 223 250 1501 0
-223 198 -250 -1500 0
-199 225 0
199 -225 0
-1405 -203 -199 0
225 226 0
-226 227 0
226 -227 0
150 -228 0
-227 -228 0
-150 227 228 0
-1520 -228 229 0
1520 -228 -229 0
-1521 -203 229 0
1521 -203 -229 0
203 -1522 229 228 0
203 1522 -229 228 0
-229 230 0
-178 -203 -230 229 -1421 0
-203 178 230 1422 0
-230 -231 0
230 231 0
-209 261 0
209 -261 0
210 236 0
237 -211 -236 -1549 0
1549 -211 -236 -237 0
-1550 211 -236 237 0
1550 211 -236 -237 0
237 -211 236 -1551 0
1551 -211 236 -237 0
-1552 211 236 237 0
1552 211 236 -237 0
211 -239 -237 0
-1661 -215 263 267 -239 1561 -1567 0
239 215 267 -1662 1563 -1568 0
-1563 239 -267 0
1567 -215 -267 0
1661 263 -267 -239 0
215 267 -263 -239 -1568 -1659 1561 0
-217 -243 0
217 243 0
-218 -243 244 0
218 -243 -244 0
-218 243 -244 0
218 243 244 0
-219 -1581 -244 245 0
-219 1581 -244 -245 0
219 -1582 -244 245 0
1582 219 -244 -245 0
-219 245 244 -1583 0
-219 -245 244 1583 0
219 245 244 -1584 0
219 -245 244 1584 0
246 -220 -245 0
220 -246 -245 0
245 -220 -246 0
220 245 246 0
1589 -221 -273 -246 0
-1592 221 273 246 272 0
1592 246 -273 221 0
246 -221 272 273 -1591 0
246 -221 -273 1591 0
221 -246 273 272 -1590 0
-222 -248 0
222 248 0
-223 249 0
-248 -249 223 0
248 249 0
-198 -223 -250 -1499 0
198 -223 250 1500 0
-250 249 0
-225 -250 -251 0
225 -250 251 0
-225 250 251 0
225 250 -251 0
-1609 252 -251 -226 0
1609 -252 -251 -226 0
-1610 226 -251 252 0
1610 -252 -251 226 0
-1611 252 251 -226 0
1611 -252 251 -226 0
-1612 226 251 252 0
1612 226 251 -252 0
-227 -252 253 -1613 0
-227 -252 -253 1613 0
227 -252 253 -1614 0
1614 -252 -253 227 0
-227 252 253 -1615 0
-227 252 -253 1615 0
227 252 253 -1616 0
1616 252 -253 227 0
-228 -254 0
228 -253 254 0
-254 253 0
-229 -254 255 -1621 0
-229 -254 -255 1621 0
-1622 229 -254 255 0
1622 -254 -255 229 0
-229 254 255 -1623 0
-229 254 -255 1623 0
-1624 229 254 255 0
1624 229 254 -255 0
-1625 -230 -255 256 0
1625 -230 -255 -256 0
-1626 256 -255 230 0
1626 -256 -255 230 0
-1627 -230 255 256 0
1627 -230 255 -256 0
-1628 256 255 230 0
1628 -256 255 230 0
-231 -256 257 -1629 0
-231 -256 -257 1629 0
-256 231 257 -1630 0
-256 1630 -257 231 0
-231 256 257 -1631 0
-231 256 -257 1631 0
256 231 257 -1632 0
231 256 -257 1632 0
236 -209 0
-236 -210 261 0
-236 1649 -263 261 0
1647 -288 0
236 263 -237 -1650 0
-236 263 -237 261 -1649 0
237 -263 0
-263 313 288 0
237 239 0
-211 239 0
1662 239 -267 0
-239 215 263 267 -1568 -1661 1561 0
239 -215 267 -1567 -1662 1563 0
1659 -267 -263 -239 0
-215 -239 267 -263 -1659 -1567 1561 0
-239 -1561 -267 0
215 1568 -267 0
243 -267 269 0
-243 -267 -269 0
243 267 -269 0
-296 269 0
-244 -269 296 0
245 271 0
-1687 -246 -271 272 0
-246 -272 -271 1687 0
246 272 -271 -1688 0
1688 -272 -271 246 0
-1689 -246 271 272 0
-246 271 -272 1689 0
246 271 272 -1690 0
246 271 -272 1690 0
-272 -273 0
-221 -246 273 272 -1589 0
-246 221 -273 1590 0
1695 -273 -248 -300 0
248 -299 300 273 -1698 0
248 1698 273 -300 0
-248 273 -299 300 -1697 0
1697 -248 273 -300 0
-1696 248 300 -273 0
-249 -275 0
249 275 0
-1704 -275 276 0
1704 -275 -276 0
-250 -1705 276 0
-250 1705 -276 0
250 275 276 -1706 0
1706 275 250 -276 0
-251 277 -276 0
-277 251 -276 0
-251 276 -277 0
251 276 277 0
-252 -277 278 -1711 0
-252 -277 -278 1711 0
252 -277 278 -1712 0
1712 -277 -278 252 0
-252 277 278 -1713 0
-252 277 -278 1713 0
252 277 278 -1714 0
252 277 -278 1714 0
-253 279 0
279 -278 0
253 -279 278 0
-254 -1719 280 0
-254 1719 -280 0
254 280 -279 -1720 0
254 -280 -279 1720 0
279 -1722 280 0
279 1722 -280 0
-255 -280 281 -1723 0
-255 -280 -281 1723 0
255 -280 281 -1724 0
1724 -280 -281 255 0
-255 280 281 -1725 0
-255 280 -281 1725 0
255 280 281 -1726 0
255 280 -281 1726 0
257 281 334 -361 0
261 313 0
236 1650 -263 0
-261 -313 0
-237 -288 263 0
-288 -289 0
-263 289 288 0
263 -289 0
289 291 0
267 1878 -346 -291 0
-243 267 269 0
269 -321 0
244 -296 0
-245 -244 -271 -269 0
271 296 0
-272 -1789 298 0
-272 1789 -298 0
-1790 272 298 0
1790 272 -298 0
-273 299 0
273 -298 -299 0
298 299 0
-273 -1695 -248 300 0
-273 248 -300 1696 0
299 -300 0
275 -276 -302 -300 1802 0
-276 -275 -302 -300 1801 0
275 -1804 302 300 0
275 -276 -302 300 1804 0
-275 -1803 302 300 0
275 -1802 -300 302 0
-275 -1801 -300 302 0
-275 -276 -302 300 1803 0
276 302 0
-277 303 -302 -1809 0
-277 -303 -302 1809 0
277 303 -302 -1810 0
1810 -303 -302 277 0
-277 302 303 -1811 0
-277 -303 302 1811 0
277 302 303 -1812 0
277 -303 302 1812 0
-303 1814 278 305 0
-305 356 0
1813 -303 -278 305 0
303 278 -305 -1816 0
303 -278 -305 -1815 0
-303 278 -305 -1814 0
-303 -278 -305 -1813 0
-280 -1821 -305 306 0
-280 1821 -305 -306 0
280 -1822 -305 306 0
1822 280 -305 -306 0
-280 305 306 -1823 0
-280 305 -306 1823 0
280 305 306 -1824 0
280 305 -306 1824 0
1827 -281 332 334 0
-1828 281 -334 0
-257 -281 -361 -306 1825 0
-1827 -281 -334 0
-1825 -281 416 0
-288 261 0
-1647 -261 288 0
-1852 314 -313 0
1852 -314 -313 0
-288 -1853 314 0
-288 1853 -314 0
-1854 313 288 314 0
1854 -314 288 313 0
-1855 -314 -289 315 0
1855 -315 -314 -289 0
-1856 -314 289 315 0
1856 -315 -314 289 0
-1857 314 -289 315 0
1857 -315 314 -289 0
-1858 314 289 315 0
1858 314 289 -315 0
-315 -291 317 0
291 341 342 0
-289 -291 0
-267 1877 -346 -291 0
-317 291 0
-1876 291 346 -370 0
-267 -1877 346 -291 0
343 370 -291 0
-269 321 0
-296 -1883 322 0
-296 1883 -322 0
-321 296 322 -1884 0
296 -321 -322 1884 0
-1886 322 321 0
1886 -322 321 0
-1891 -298 324 0
1891 -298 -324 0
298 -1892 324 0
298 1892 -324 0
-299 -324 -325 0
299 -324 325 0
-299 324 325 0
299 324 -325 0
300 -325 -381 0
-300 -1910 381 302 0
302 1910 -381 0
1909 -302 -381 0
-300 -1909 -302 381 0
-278 303 305 1815 0
-306 332 0
306 -332 0
-332 -334 0
-281 416 332 0
313 365 0
314 -340 0
-313 -365 0
-315 341 0
-340 341 0
315 -341 340 0
-317 315 0
-342 -341 0
-291 -342 0
-1966 -342 343 0
1966 -342 -343 0
-317 -1967 343 0
-317 1967 -343 0
-1968 343 342 317 0
1968 -343 317 342 0
343 291 -370 0
267 346 -291 -1878 0
-321 -347 0
-347 -346 0
321 346 347 0
1985 -322 -349 -347 0
322 349 347 -1988 0
322 -349 347 1988 0
-322 349 347 -1987 0
-322 -349 347 1987 0
322 -347 349 -1986 0
-322 -347 349 -1985 0
-347 322 -349 1986 0
1993 -324 -376 -349 0
349 324 376 -1996 0
349 324 -376 1996 0
349 -324 376 -1995 0
349 -324 -376 1995 0
324 -349 376 -1994 0
305 -356 -381 0
302 325 381 -1910 0
278 303 305 1816 0
2024 356 -383 0
-2024 356 383 0
2022 -356 -383 0
2022 -356 -384 0
-332 -383 -384 0
-439 334 437 0
1828 281 332 334 0
-314 313 340 0
-340 365 0
-340 -2055 366 0
-340 2055 -366 0
-2056 -365 340 366 0
2056 -365 340 -366 0
-2058 365 366 0
2058 -366 365 0
-341 -367 0
341 -366 367 0
-367 366 0
-342 368 0
342 -367 -368 0
368 367 0
-343 -370 368 0
343 370 -346 0
-343 370 -368 0
291 1876 -346 0
-370 424 -346 -2076 0
370 2078 -424 0
346 -424 0
-324 -349 376 -1993 0
-349 324 -376 1994 0
-325 -430 429 0
-302 325 381 -1909 0
-382 -381 0
356 -382 0
381 382 0
-382 -383 0
-2022 -332 -356 383 384 0
332 383 -384 0
383 382 -384 0
384 332 -383 0
-356 383 382 -2022 0
2131 437 0
384 2133 -361 -439 0
384 -2133 439 -334 0
361 -334 0
-257 281 416 0
-384 -437 -435 -2131 0
416 -361 0
-281 257 361 0
-365 -391 0
365 391 0
-366 -392 0
366 392 -391 0
391 -392 0
-2162 -392 393 0
2162 -393 -392 0
-2163 -367 393 0
2163 -393 -367 0
367 -2164 393 392 0
367 392 -393 2164 0
-419 368 420 0
-393 420 0
-370 2076 -424 0
2185 -425 0
-2198 376 -453 -428 0
-376 -430 429 0
381 -432 -433 0
2223 -382 -434 0
2222 -434 382 0
-2223 -382 434 -433 0
2131 -384 -361 -439 0
384 437 0
334 -439 -361 0
361 -416 0
-2257 -391 417 0
2257 -391 -417 0
391 -2258 417 0
391 2258 -417 0
392 419 -417 0
-393 419 0
-392 -419 393 0
420 -368 419 0
-419 -368 393 -420 0
-420 368 419 0
370 424 -346 -2078 0
-424 -2185 425 0
424 -425 0
-2292 -425 426 0
2292 -425 -426 0
-2294 425 426 0
2294 425 -426 0
-426 -453 0
-376 2197 428 0
426 453 0
376 428 2198 0
-429 -428 0
428 429 0
325 430 376 0
-429 430 0
-2311 431 -430 0
2311 -430 -431 0
-2313 430 431 0
2313 430 -431 0
-2315 432 -431 0
2315 -432 -431 0
-2317 431 432 0
2317 431 -432 0
432 -381 -433 0
-432 433 -381 0
381 432 433 0
-2222 434 -433 382 0
433 -434 0
383 435 0
-434 -383 -435 0
434 435 0
-334 -384 439 -2131 0
439 -487 517 437 0
-2453 -437 467 -441 0
361 -437 439 0
439 -441 0
-439 441 0
-2355 -441 442 -416 0
2355 -441 -442 -416 0
416 -441 442 -2356 0
2356 -441 -442 416 0
-2357 442 441 -416 0
2357 -442 441 -416 0
416 442 441 -2358 0
416 -442 441 2358 0
-419 393 417 0
-419 445 0
-420 -2369 446 -445 0
-420 2369 -445 -446 0
420 -2370 446 -445 0
2370 420 -445 -446 0
-2371 445 446 -420 0
2371 445 -446 -420 0
420 445 446 -2372 0
420 445 -446 2372 0
450 -449 -424 0
424 -449 -450 0
449 -424 -450 0
424 449 450 0
-2488 450 -477 -475 0
425 -2487 -477 -475 -450 0
-376 -2197 -428 426 0
428 -426 0
-453 -428 454 0
428 -454 0
453 -454 0
-429 -2407 -457 -431 0
-429 2407 457 0
-2406 -454 -457 -431 0
-430 454 457 429 2408 0
-2408 454 -431 429 -457 0
430 -431 -457 0
431 457 0
432 -459 -433 0
433 459 0
-459 -433 484 0
-2425 -459 -434 460 0
2425 -459 -434 -460 0
-2426 -459 460 434 0
2426 -459 -460 434 0
-2427 459 -434 460 0
2427 459 -434 -460 0
434 459 460 -2428 0
434 459 -460 2428 0
-460 461 -435 -2429 0
-460 -461 -435 2429 0
-460 461 435 -2430 0
2430 -460 -461 435 0
-2431 461 -435 460 0
2431 460 -435 -461 0
-2432 461 435 460 0
2432 435 460 -461 0
487 -517 0
-441 -517 0
-439 437 467 -2455 0
-439 437 -467 2455 0
-2456 441 467 0
2456 441 -467 0
-471 -417 0
445 471 0
-446 472 -471 -2471 0
-446 -472 -471 2471 0
446 472 -471 -2472 0
2472 -472 -471 446 0
-446 -2473 472 471 0
-446 2473 471 -472 0
446 -2474 472 471 0
446 2474 471 -472 0
-2573 -497 -526 -472 0
-2483 -449 475 0
2483 -449 -475 0
449 -2484 475 0
449 2484 -475 0
2488 450 -475 477 0
2487 -450 -475 477 0
-2490 450 475 -477 0
2490 450 475 477 0
425 -2489 -477 475 -450 0
-425 -450 477 0
2489 -450 475 477 0
453 -477 -479 2500 0
-426 477 479 -2502 0
-2499 -453 479 0
2499 -453 -479 0
453 -477 479 -2500 0
453 477 -479 2502 0
454 -2606 506 479 0
-430 -454 457 2406 0
484 535 0
459 -432 -457 0
-459 485 -484 -2523 0
-459 -485 -484 2523 0
459 485 -484 -2524 0
2524 -485 -484 459 0
-459 484 485 -2525 0
-459 484 -485 2525 0
459 484 485 -2526 0
459 484 -485 2526 0
-460 486 0
460 -486 -485 0
485 486 0
-461 -486 487 -2531 0
-461 -486 -487 2531 0
461 -486 487 -2532 0
2532 -486 -487 461 0
-461 486 487 -2533 0
-461 486 -487 2533 0
461 486 487 -2534 0
461 486 -487 2534 0
435 437 0
-441 -437 -467 2453 0
-467 -519 0
467 519 0
419 -471 -445 0
2568 497 471 0
-2568 -497 0
-472 497 526 2575 0
-472 -497 526 2573 0
-2576 497 526 472 0
-472 497 -526 -2575 0
472 -497 -526 2574 0
-526 -501 0
472 -497 526 -2574 0
472 497 -526 2576 0
475 -501 0
-2690 501 -555 526 0
2688 -526 -477 555 0
-2591 477 501 -555 0
-479 -505 0
479 505 0
-454 2605 -506 -505 0
-454 -2605 506 -505 0
454 2606 -506 479 0
-2607 506 505 0
2607 -506 505 0
457 -484 0
-457 484 0
-2621 510 -484 0
-510 2621 -484 0
484 -2624 510 0
484 2624 -510 0
-2625 -485 -510 511 0
2625 -485 -510 -511 0
485 -510 511 -2626 0
2626 -510 -511 485 0
-2627 -485 510 511 0
2627 -485 510 -511 0
485 510 511 -2628 0
485 510 -511 2628 0
-486 -511 512 -2629 0
-486 -511 -512 2629 0
486 -511 512 -2630 0
2630 -511 -512 486 0
-486 511 512 -2631 0
-486 511 -512 2631 0
486 511 512 -2632 0
486 511 -512 2632 0
-512 513 -487 -2633 0
-512 -487 -513 2633 0
487 -512 513 -2634 0
2634 -512 -513 487 0
513 -487 512 -2635 0
-487 512 -513 2635 0
487 513 512 -2636 0
487 512 -513 2636 0
-437 -517 0
-442 -467 545 -572 571 -2664 0
2661 -519 572 0
442 519 -572 571 545 -2663 0
-442 -467 572 2664 0
442 519 572 2663 0
-497 417 0
471 417 0
-475 526 501 0
2589 -501 555 2689 0
-2689 -501 -555 0
-501 2689 -477 555 0
-2688 -526 -555 0
2591 2690 555 501 526 0
-526 2591 555 2688 0
-501 477 -555 -2589 0
-505 -531 0
505 531 0
2707 -506 534 -531 0
506 -2710 531 -534 0
506 2710 534 531 0
-506 -2709 531 -534 0
-506 2709 534 531 0
506 -534 -531 -2708 0
-506 -534 -531 -2707 0
506 -531 534 2708 0
-534 535 0
-484 -535 534 0
-510 536 -535 0
510 -536 -535 0
-510 -536 535 0
510 536 535 0
-536 -511 537 -2727 0
-536 -511 -537 2727 0
-536 511 537 -2728 0
-536 2728 -537 511 0
-511 536 537 -2729 0
-511 536 -537 2729 0
536 511 537 -2730 0
511 536 -537 2730 0
-512 -537 564 0
513 -2736 588 564 -2934 -592 0
2736 513 592 0
513 -2736 -588 564 -2932 -592 0
2735 -513 592 0
513 -2736 617 -592 0
-517 -2751 543 0
-517 2751 -543 0
517 -2752 543 0
517 2752 -543 0
-2755 -543 544 0
2755 -543 -544 0
-2757 544 543 0
2757 -544 543 0
-2759 -544 -519 545 0
2759 -544 -519 -545 0
519 -2760 -544 545 0
2760 519 -544 -545 0
-2761 544 -519 545 0
2761 -545 -519 544 0
519 -2762 545 544 0
519 2762 -545 544 0
-545 572 0
-477 501 555 526 2690 0
-555 559 531 2802 0
555 -2804 -559 0
-555 -2802 -559 0
555 559 531 2804 0
-534 -2817 -559 560 0
-534 -559 -560 2817 0
-2818 534 -559 560 0
2818 -559 -560 534 0
-534 559 560 -2819 0
-534 559 -560 2819 0
-2820 559 560 534 0
2820 559 -560 534 0
-562 586 -587 0
-2824 535 560 562 0
535 2824 -562 560 0
-535 2823 -562 560 0
-535 -2823 562 560 0
2822 535 -562 -560 0
-535 562 -560 -2821 0
-535 -560 -562 2821 0
512 -564 562 0
537 -564 0
-537 -562 564 0
-588 -2932 564 614 3035 -617 0
-543 569 0
543 -569 -568 0
568 569 0
-545 571 -569 0
-545 -544 571 0
544 545 569 571 0
-545 -571 569 544 0
545 -571 -569 0
-544 -571 545 0
-571 572 0
-519 545 -572 571 -2661 0
2907 -585 0
-2907 -559 585 0
-531 -559 0
559 -585 0
-560 586 0
-585 586 0
560 -586 585 0
-586 587 0
535 562 -560 -2822 0
-562 -2927 588 -587 0
-562 2927 -587 -588 0
-2928 562 588 0
2928 562 -588 0
-2929 587 588 0
2929 587 -588 0
562 587 0
614 3035 588 564 -617 -2934 0
-614 3033 588 564 -617 -2934 0
2934 588 592 0
-2735 -513 617 -592 0
-564 592 0
-564 617 0
2932 -588 617 0
-588 -2735 -513 564 -2932 -592 0
-2947 -592 593 0
2947 -593 -592 0
-2949 592 593 0
-593 2949 592 0
-2951 -593 -568 594 0
2951 -593 -594 -568 0
-2952 -593 594 568 0
2952 -593 -594 568 0
-2953 593 -568 594 0
2953 593 -568 -594 0
-2954 593 594 568 0
2954 593 -594 568 0
3259 569 -675 645 597 0
-571 -2963 597 0
-571 2963 -597 0
-2964 571 597 0
2964 571 -597 0
572 2968 -597 3273 0
2967 -572 -597 3273 0
572 -2968 -675 3274 0
-3021 -585 -613 0
3024 586 613 0
-585 3021 613 0
-587 586 -613 -3024 0
-586 585 -613 -3023 0
-586 585 613 3023 0
587 613 0
-613 -588 614 -3029 0
-613 3029 -614 -588 0
-613 614 588 -3030 0
-613 3030 -614 588 0
613 -588 614 -3031 0
613 3031 -614 -588 0
613 614 588 -3032 0
613 -614 588 3032 0
-2932 -588 -614 564 -617 3033 0
-588 2932 592 0
-3035 614 617 0
614 592 -617 3035 0
2934 588 617 0
-3033 -614 617 0
-614 592 -617 3033 0
-513 588 564 -592 -2735 -2934 0
-592 -3150 643 -645 0
-3149 592 -645 617 0
617 -643 0
-617 643 0
-593 592 645 617 3149 0
-3148 -643 -645 0
-592 643 645 3150 0
593 592 617 -645 0
-569 -594 675 645 0
594 -3259 675 0
645 594 -675 597 3259 0
3274 -675 597 0
-572 -2967 -675 3274 0
-643 -645 -675 -569 -594 597 3258 0
3148 -643 645 0
-643 -3258 -645 675 0
643 -594 -675 -569 -645 597 3260 0
643 -3260 -645 675 0
594 -645 675 0
-3259 569 675 0
-597 675 0
-645 569 675 0
-675 3274 3273 0
675 3276 0
676 0
36 0
-37 0
-62 0
63 0
64 0
75 0
93 0
97 0
-99 0
125 0
101 0
-103 0
-127 0
-153 0
-161 0
162 0
-163 0
179 0
-186 0
188 0
205 0
-206 0
207 0
214 0
232 0
-233 0
-234 0
297 0
373 0
-374 0
-375 0
323 0
-331 0
401 0
-400 0
359 0
395 0
-396 0
397 0
405 0
406 0
422 0
448 0
474 0
-492 0
-508 0
518 0
-530 0
541 0
542 0
567 0
596 0
-622 0
648 0
2849 0
2279 0
1362 0
1356 0
208 0
423 0
77 0
182 0
160 0
181 0
9 0
504 0
100 0
11 0
260 0
102 0
78 0
10 0
669 0
668 0
667 0
666 0
665 0
642 0
664 0
180 0
156 0
130 0
104 0
52 0
51 0
155 0
129 0
76 0
26 0
25 0
23 0
73 0
641 0
602 0
295 0
154 0
128 0
421 0
372 0
74 0
650 0
624 0
469 0
380 0
379 0
353 0
213 0
212 0
137 0
98 0
595 0
482 0
404 0
333 0
72 0
638 0
616 0
610 0
581 0
577 0
452 0
117 0
673 0
661 0
566 0
390 0
92 0
409 0
116 0
651 0
126 0
1 0
657 0
654 0
652 0
623 0
599 0
493 0
443 0
364 0
338 0
339 0
22 0
8 0
540 0
529 0
503 0
330 0
185 0
483 0
462 0
451 0
403 0
378 0
363 0
337 0
362 0
354 0
336 0
176 0
44 0
50 0
49 0
24 0
21 0
270 0
670 0
660 0
659 0
621 0
516 0
515 0
514 0
490 0
489 0
488 0
447 0
399 0
259 0
570 0
358 0
96 0
67 0
360 0
620 0
619 0
553 0
552 0
481 0
387 0
377 0
329 0
355 0
159 0
147 0
48 0
45 0
43 0
17 0
627 0
674 0
546 0
468 0
369 0
398 0
590 0
134 0
473 0
287 0
235 0
500 0
470 0
427 0
478 0
663 0
662 0
635 0
634 0
633 0
609 0
658 0
632 0
631 0
606 0
656 0
630 0
655 0
653 0
601 0
626 0
625 0
600 0
574 0
605 0
629 0
628 0
575 0
603 0
608 0
312 0
286 0
311 0
285 0
310 0
284 0
258 0
309 0
283 0
175 0
142 0
136 0
640 0
639 0
637 0
636 0
607 0
604 0
611 0
578 0
582 0
580 0
579 0
554 0
584 0
411 0
408 0
415 0
414 0
389 0
388 0
413 0
316 0
293 0
266 0
238 0
91 0
507 0
456 0
455 0
480 0
463 0
436 0
71 0
95 0
649 0
551 0
525 0
550 0
499 0
458 0
42 0
16 0
41 0
440 0
418 0
402 0
352 0
326 0
308 0
202 0
168 0
152 0
533 0
69 0
348 0
151 0
320 0
56 0
520 0
139 0
351 0
612 0
491 0
81 0
565 0
224 0
647 0
274 0
558 0
583 0
494 0
141 0
47 0
509 0
371 0
350 0
644 0
671 0
615 0
335 0
204 0
247 0
144 0
38 0
265 0
164 0
169 0
407 0
357 0
412 0
410 0
242 0
464 0
438 0
466 0
290 0
292 0
598 0
304 0
328 0
262 0
84 0
532 0
502 0
557 0
241 0
240 0
268 0
201 0
672 0
465 0
107 0
345 0
301 0
591 0
589 0
318 0
573 0
576 0
524 0
444 0
528 0
189 0
556 0
34 0
70 0
344 0
386 0
327 0
13 0
294 0
394 0
282 0
109 0
121 0
618 0
646 0
496 0
177 0
385 0
549 0
523 0
548 0
547 0
522 0
264 0
495 0
20 0
527 0
563 0
46 0
476 0
561 0
539 0
200 0
498 0
307 0
538 0
521 0
319 0
